p cnf 7230 15
-3772 4846 -4849 0
3772 -4847 0
3236 -4849 0
3780 -4849 0
3774 -4849 0
-3236 -3774 -3780 -3782 4848 0
3782 -4849 0
-4847 4849 0
4845 -4849 0
-4846 4847 0
-4848 4849 0
4844 -4845 0
-4844 4845 0
3782 -4851 0
3780 -4851 0
